(declare-fun v10 () (_ BitVec 11))
(assert
(let (($e16 (_ bv63  9)))
(let (($e28 (_ bv0  6)))
(let (($e31 (_ bv0 4)))
(let (($e296 (concat $e28  $e16)))
(let (($e364 (concat $e31 v10)))
(let (($e365 (bvand $e296 $e364)))
(let (($e366 (bvand (bvnot $e296) (bvnot $e364))))
(let (($e367 (bvand (bvnot $e366) (bvnot $e365))))
(let (($e540 (bvand        $e296  $e367)))
(let (($e789 (   extract      $e365)))
             (ite        $e789  $e540 $e367)
                                                                                                                                                                                                                                                                                                                                                                                                                                                                                                                                                                                                                                                                                                                                                                                                                                                                                                                                                                                                                                                                                                                                                                                                                                                                                                                                                                                                                                                                                                                                                                                                                                                                                                                                                                                                                                                                                                                                                                                                                                                                                                                                                                                                                                                                                                                                                                                                                                                                                                                                                                                                                                                                                                                                                                                                                                                                                                                                                                                                                                                                                                                                                                                                                                                                                                                                                                                                                                                                                                                                                                                                                                                                                                                                            )                                                                                                                                                                                                                                                        )                                                                                                                                                                            ))))                                                                   )                                                                                                                                                                                                                                                       )  )           )               )
